(declare-const c_0 Real)
(declare-const c_1 Real)
(declare-const c_2 Real)
(declare-const c_3 Real)
(declare-const c_4 Real)
(declare-const c_5 Real)
(declare-const c_6 Real)
(declare-const c_7 Real)
(declare-const s_0 Real)
(declare-const s_1 Real)
(declare-const s_2 Real)
(declare-const s_3 Real)
(declare-const s_4 Real)
(declare-const s_5 Real)
(declare-const s_6 Real)
(declare-const s_7 Real)
(assert (forall ((oldx Real) (x Real) (y Real) ) (=> (and (>= (+ (* 1024 1) (* 1 oldx ) ) 0) (>= (+ (* 1023 1) (* (- 1) oldx ) ) 0) (>= (+ (* 1024 1) (* 1 x ) ) 0) (>= (+ (* 1023 1) (* (- 1) x ) ) 0) (>= (+ (* 1024 1) (* 1 y ) ) 0) (>= (+ (* 1023 1) (* (- 1) y ) ) 0) ) (>= (+ (* 1 oldx s_1 ) (* 1 s_0 ) (* 1 s_2 x ) (* 1 s_3 y ) ) 0) )))
(assert (forall ((oldx Real) (x Real) (y Real) ) (=> (and (>= (+ (* 1024 1) (* 1 oldx ) ) 0) (>= (+ (* 1023 1) (* (- 1) oldx ) ) 0) (>= (+ (* 1024 1) (* 1 x ) ) 0) (>= (+ (* 1023 1) (* (- 1) x ) ) 0) (>= (+ (* 1024 1) (* 1 y ) ) 0) (>= (+ (* 1023 1) (* (- 1) y ) ) 0) ) (>= (+ (* 1 c_0 ) (* 1 c_1 oldx ) (* 1 c_2 x ) (* 1 c_3 y ) ) 0) )))
(assert (forall ((oldx Real) (x Real) (y Real) ) (=> (and (>= (+ (* (- 1) 1) (* 4 x ) (* (- 5) y ) ) 0) (>= (* 1 1) 0) (>= (+ (* 1 oldx s_1 ) (* 1 s_0 ) (* 1 s_2 x ) (* 1 s_3 y ) ) 0) ) (>= (+ (* 1 s_0 ) (* 1 s_1 x ) (* 2 s_2 x ) (* 4 s_2 y ) (* 4 s_3 x ) ) 0) )))
(assert (forall ((oldx Real) (x Real) (y Real) ) (=> (and (>= (+ (* (- 1) 1) (* 4 x ) (* (- 5) y ) ) 0) (>= (* 1 1) 0) (>= (+ (* 1 oldx s_1 ) (* 1 s_0 ) (* 1 s_2 x ) (* 1 s_3 y ) ) 0) ) (>= (+ (* 1 c_0 ) (* 1 c_1 x ) (* 2 c_2 x ) (* 4 c_2 y ) (* 4 c_3 x ) ) 0) )))
(assert (forall ((oldx Real) (x Real) (y Real) ) (=> (and (>= (+ (* (- 1) 1) (* 4 x ) (* (- 5) y ) ) 0) (>= (* 1 1) 0) (>= (+ (* 1 oldx s_1 ) (* 1 s_0 ) (* 1 s_2 x ) (* 1 s_3 y ) ) 0) ) (>= (+ (* (- 1) 1) (* 1 c_1 oldx ) (* (- 1) c_1 x ) (* (- 1) c_2 x ) (* (- 4) c_2 y ) (* (- 4) c_3 x ) (* 1 c_3 y ) ) 0) )))
(assert (forall ((oldx Real) (x Real) (y Real) ) (=> (and (>= (+ (* (- 4) x ) (* 5 y ) ) 0) (>= (* 1 1) 0) (>= (+ (* 1 oldx s_1 ) (* 1 s_0 ) (* 1 s_2 x ) (* 1 s_3 y ) ) 0) ) (>= (+ (* 1 oldx s_5 ) (* 1 s_4 ) (* 1 s_6 x ) (* 1 s_7 y ) ) 0) )))
(assert (forall ((oldx Real) (x Real) (y Real) ) (=> (and (>= (+ (* (- 4) x ) (* 5 y ) ) 0) (>= (* 1 1) 0) (>= (+ (* 1 oldx s_1 ) (* 1 s_0 ) (* 1 s_2 x ) (* 1 s_3 y ) ) 0) ) (>= (+ (* 1 c_4 ) (* 1 c_5 oldx ) (* 1 c_6 x ) (* 1 c_7 y ) ) 0) )))

(check-sat)
(get-model)
